# Solution for model Network Model
# Objective value = 2
z[0] 1
z[1] 1
z[2] 1
z[3] 1
z[4] 0
z[5] 1
z[6] 1
z[7] 1
z[8] 1
z[9] 1
z[10] 1
z[11] 1
z[12] 1
z[13] 1
z[14] 0
z[15] 1
z[16] 1
z[17] 1
z[18] 1
z[19] 0
z[20] 1
z[21] 1
z[22] 1
z[23] 1
z[24] 1
z[25] 1
z[26] 1
z[27] 1
z[28] 1
z[29] 1
za[0,0] 0
za[0,1] 0
za[0,2] 0
za[0,3] 0
za[0,4] 0
za[0,5] 0
za[0,6] 0
za[0,7] 0
za[0,8] 1
za[0,9] 0
za[1,0] 0
za[1,1] 0
za[1,2] 0
za[1,3] 0
za[1,4] 0
za[1,5] 0
za[1,6] 0
za[1,7] 0
za[1,8] 0
za[1,9] 1
za[2,0] 0
za[2,1] 0
za[2,2] 0
za[2,3] 1
za[2,4] 0
za[2,5] 0
za[2,6] 0
za[2,7] 0
za[2,8] 0
za[2,9] 0
za[3,0] 0
za[3,1] 0
za[3,2] 0
za[3,3] 0
za[3,4] 1
za[3,5] 0
za[3,6] 0
za[3,7] 0
za[3,8] 0
za[3,9] 0
za[4,0] 0
za[4,1] 0
za[4,2] 0
za[4,3] 0
za[4,4] 0
za[4,5] 0
za[4,6] 0
za[4,7] 0
za[4,8] 0
za[4,9] 0
za[5,0] 0
za[5,1] 0
za[5,2] 0
za[5,3] 0
za[5,4] 0
za[5,5] 1
za[5,6] 0
za[5,7] 0
za[5,8] 0
za[5,9] 0
za[6,0] 1
za[6,1] 0
za[6,2] 0
za[6,3] 0
za[6,4] 0
za[6,5] 0
za[6,6] 0
za[6,7] 0
za[6,8] 0
za[6,9] 0
za[7,0] 0
za[7,1] 0
za[7,2] 0
za[7,3] 0
za[7,4] 0
za[7,5] 0
za[7,6] 1
za[7,7] 0
za[7,8] 0
za[7,9] 0
za[8,0] 0
za[8,1] 0
za[8,2] 0
za[8,3] 0
za[8,4] 0
za[8,5] 0
za[8,6] 0
za[8,7] 0
za[8,8] 1
za[8,9] 0
za[9,0] 0
za[9,1] 0
za[9,2] 1
za[9,3] 0
za[9,4] 0
za[9,5] 0
za[9,6] 0
za[9,7] 0
za[9,8] 0
za[9,9] 0
za[10,0] 1
za[10,1] 0
za[10,2] 0
za[10,3] 0
za[10,4] 0
za[10,5] 0
za[10,6] 0
za[10,7] 0
za[10,8] 0
za[10,9] 0
za[11,0] 0
za[11,1] 0
za[11,2] 0
za[11,3] 0
za[11,4] 0
za[11,5] 1
za[11,6] 0
za[11,7] 0
za[11,8] 0
za[11,9] 0
za[12,0] 0
za[12,1] 1
za[12,2] 0
za[12,3] 0
za[12,4] 0
za[12,5] 0
za[12,6] 0
za[12,7] 0
za[12,8] 0
za[12,9] 0
za[13,0] 0
za[13,1] 0
za[13,2] 0
za[13,3] 0
za[13,4] 1
za[13,5] 0
za[13,6] 0
za[13,7] 0
za[13,8] 0
za[13,9] 0
za[14,0] 0
za[14,1] 0
za[14,2] 0
za[14,3] 0
za[14,4] 0
za[14,5] 0
za[14,6] 0
za[14,7] 0
za[14,8] 0
za[14,9] 0
za[15,0] 0
za[15,1] 0
za[15,2] 0
za[15,3] 0
za[15,4] 0
za[15,5] 1
za[15,6] 0
za[15,7] 0
za[15,8] 0
za[15,9] 0
za[16,0] 0
za[16,1] 0
za[16,2] 0
za[16,3] 0
za[16,4] 0
za[16,5] 0
za[16,6] 0
za[16,7] 1
za[16,8] 0
za[16,9] 0
za[17,0] 0
za[17,1] 0
za[17,2] 0
za[17,3] 0
za[17,4] 0
za[17,5] 0
za[17,6] 0
za[17,7] 0
za[17,8] 0
za[17,9] 1
za[18,0] 0
za[18,1] 0
za[18,2] 0
za[18,3] 0
za[18,4] 0
za[18,5] 0
za[18,6] 0
za[18,7] 1
za[18,8] 0
za[18,9] 0
za[19,0] 0
za[19,1] 0
za[19,2] 0
za[19,3] 0
za[19,4] 0
za[19,5] 0
za[19,6] 0
za[19,7] 0
za[19,8] 0
za[19,9] 0
za[20,0] 0
za[20,1] 1
za[20,2] 0
za[20,3] 0
za[20,4] 0
za[20,5] 0
za[20,6] 0
za[20,7] 0
za[20,8] 0
za[20,9] 0
za[21,0] 0
za[21,1] 0
za[21,2] 1
za[21,3] 0
za[21,4] 0
za[21,5] 0
za[21,6] 0
za[21,7] 0
za[21,8] 0
za[21,9] 0
za[22,0] 0
za[22,1] 0
za[22,2] 0
za[22,3] 0
za[22,4] 0
za[22,5] 0
za[22,6] 0
za[22,7] 0
za[22,8] 0
za[22,9] 1
za[23,0] 0
za[23,1] 0
za[23,2] 0
za[23,3] 0
za[23,4] 0
za[23,5] 0
za[23,6] 1
za[23,7] 0
za[23,8] 0
za[23,9] 0
za[24,0] 0
za[24,1] 0
za[24,2] 0
za[24,3] 1
za[24,4] 0
za[24,5] 0
za[24,6] 0
za[24,7] 0
za[24,8] 0
za[24,9] 0
za[25,0] 0
za[25,1] 0
za[25,2] 0
za[25,3] 1
za[25,4] 0
za[25,5] 0
za[25,6] 0
za[25,7] 0
za[25,8] 0
za[25,9] 0
za[26,0] 0
za[26,1] 0
za[26,2] 0
za[26,3] 0
za[26,4] 0
za[26,5] 0
za[26,6] 0
za[26,7] 0
za[26,8] 0
za[26,9] 1
za[27,0] 0
za[27,1] 0
za[27,2] 0
za[27,3] 0
za[27,4] 0
za[27,5] 0
za[27,6] 1
za[27,7] 0
za[27,8] 0
za[27,9] 0
za[28,0] 0
za[28,1] 0
za[28,2] 0
za[28,3] 0
za[28,4] 0
za[28,5] 0
za[28,6] 1
za[28,7] 0
za[28,8] 0
za[28,9] 0
za[29,0] 0
za[29,1] 0
za[29,2] 0
za[29,3] 0
za[29,4] 0
za[29,5] 0
za[29,6] 0
za[29,7] 1
za[29,8] 0
za[29,9] 0
zb[0,0] 0
zb[0,1] 1
zb[0,2] 0
zb[0,3] 1
zb[0,4] 0
zb[0,5] 1
zb[0,6] 0
zb[0,7] 0
zb[0,8] 0
zb[0,9] 0
zb[1,0] 0
zb[1,1] 0
zb[1,2] 1
zb[1,3] 0
zb[1,4] 0
zb[1,5] 0
zb[1,6] 0
zb[1,7] 0
zb[1,8] 0
zb[1,9] 0
zb[2,0] 0
zb[2,1] 0
zb[2,2] 0
zb[2,3] 0
zb[2,4] 0
zb[2,5] 0
zb[2,6] 0
zb[2,7] 1
zb[2,8] 0
zb[2,9] 1
zb[3,0] 0
zb[3,1] 0
zb[3,2] 0
zb[3,3] 0
zb[3,4] 0
zb[3,5] 0
zb[3,6] 0
zb[3,7] 0
zb[3,8] 1
zb[3,9] 0
zb[4,0] 0
zb[4,1] 0
zb[4,2] 0
zb[4,3] 0
zb[4,4] 0
zb[4,5] 0
zb[4,6] 0
zb[4,7] 0
zb[4,8] 0
zb[4,9] 0
zb[5,0] 0
zb[5,1] 0
zb[5,2] 0
zb[5,3] 0
zb[5,4] 0
zb[5,5] 0
zb[5,6] 0
zb[5,7] 0
zb[5,8] 0
zb[5,9] 0
zb[6,0] 0
zb[6,1] 0
zb[6,2] 0
zb[6,3] 0
zb[6,4] 0
zb[6,5] 0
zb[6,6] 0
zb[6,7] 0
zb[6,8] 0
zb[6,9] 0
zb[7,0] 0
zb[7,1] 0
zb[7,2] 0
zb[7,3] 0
zb[7,4] 0
zb[7,5] 0
zb[7,6] 1
zb[7,7] 0
zb[7,8] 0
zb[7,9] 0
zb[8,0] 1
zb[8,1] 0
zb[8,2] 0
zb[8,3] 0
zb[8,4] 1
zb[8,5] 0
zb[8,6] 0
zb[8,7] 0
zb[8,8] 0
zb[8,9] 0
zb[9,0] 0
zb[9,1] 0
zb[9,2] 0
zb[9,3] 0
zb[9,4] 0
zb[9,5] 0
zb[9,6] 0
zb[9,7] 0
zb[9,8] 0
zb[9,9] 0
y[0,0] 0
y[0,1] 0
y[0,2] 0
y[0,3] 0
y[0,4] 0
y[0,5] 1
y[0,6] 0
y[0,7] 0
y[0,8] 0
y[0,9] 0
y[1,0] 0
y[1,1] 0
y[1,2] 1
y[1,3] 0
y[1,4] 0
y[1,5] 0
y[1,6] 0
y[1,7] 0
y[1,8] 0
y[1,9] 0
y[2,0] 0
y[2,1] 0
y[2,2] 0
y[2,3] 0
y[2,4] 0
y[2,5] 0
y[2,6] 0
y[2,7] 0
y[2,8] 0
y[2,9] 0
y[3,0] 0
y[3,1] 0
y[3,2] 0
y[3,3] 0
y[3,4] 0
y[3,5] 0
y[3,6] 0
y[3,7] 0
y[3,8] 1
y[3,9] 0
y[4,0] 0
y[4,1] 0
y[4,2] 0
y[4,3] 0
y[4,4] 0
y[4,5] 0
y[4,6] 0
y[4,7] 0
y[4,8] 0
y[4,9] 0
y[5,0] 0
y[5,1] 0
y[5,2] 0
y[5,3] 0
y[5,4] 0
y[5,5] 0
y[5,6] 0
y[5,7] 0
y[5,8] 0
y[5,9] 0
y[6,0] 0
y[6,1] 0
y[6,2] 0
y[6,3] 0
y[6,4] 0
y[6,5] 0
y[6,6] 0
y[6,7] 0
y[6,8] 0
y[6,9] 0
y[7,0] 0
y[7,1] 0
y[7,2] 0
y[7,3] 0
y[7,4] 0
y[7,5] 0
y[7,6] 0
y[7,7] 0
y[7,8] 0
y[7,9] 0
y[8,0] 0
y[8,1] 0
y[8,2] 0
y[8,3] 0
y[8,4] 0
y[8,5] 0
y[8,6] 0
y[8,7] 0
y[8,8] 0
y[8,9] 0
y[9,0] 0
y[9,1] 0
y[9,2] 0
y[9,3] 0
y[9,4] 0
y[9,5] 0
y[9,6] 0
y[9,7] 0
y[9,8] 0
y[9,9] 0
c[0] 1
c[1] 1
c[2] 1
c[3] 1
c[4] 1
c[5] 1
c[6] 1
c[7] 1
c[8] 1
c[9] 1
u[0,0] 0
u[0,1] 1
u[0,2] 0
u[0,3] 0
u[0,4] 0
u[0,5] 1
u[0,6] 0
u[0,7] 0
u[0,8] 0
u[0,9] 0
u[1,0] 0
u[1,1] 0
u[1,2] 1
u[1,3] 0
u[1,4] 0
u[1,5] 0
u[1,6] 0
u[1,7] 0
u[1,8] 0
u[1,9] 0
u[2,0] 0
u[2,1] 0
u[2,2] 0
u[2,3] 0
u[2,4] 0
u[2,5] 0
u[2,6] 0
u[2,7] 1
u[2,8] 0
u[2,9] 1
u[3,0] 0
u[3,1] 0
u[3,2] 0
u[3,3] 0
u[3,4] 0
u[3,5] 0
u[3,6] 0
u[3,7] 0
u[3,8] 1
u[3,9] 0
u[4,0] 0
u[4,1] 0
u[4,2] 0
u[4,3] 0
u[4,4] 0
u[4,5] 0
u[4,6] 0
u[4,7] 0
u[4,8] 0
u[4,9] 0
u[5,0] 0
u[5,1] 0
u[5,2] 0
u[5,3] 0
u[5,4] 0
u[5,5] 0
u[5,6] 0
u[5,7] 0
u[5,8] 0
u[5,9] 0
u[6,0] 0
u[6,1] 0
u[6,2] 0
u[6,3] 0
u[6,4] 0
u[6,5] 0
u[6,6] 0
u[6,7] 0
u[6,8] 0
u[6,9] 0
u[7,0] 0
u[7,1] 0
u[7,2] 0
u[7,3] 0
u[7,4] 0
u[7,5] 0
u[7,6] 1
u[7,7] 0
u[7,8] 0
u[7,9] 0
u[8,0] 1
u[8,1] 0
u[8,2] 0
u[8,3] 0
u[8,4] 1
u[8,5] 0
u[8,6] 0
u[8,7] 0
u[8,8] 0
u[8,9] 0
u[9,0] 0
u[9,1] 0
u[9,2] 0
u[9,3] 0
u[9,4] 0
u[9,5] 0
u[9,6] 0
u[9,7] 0
u[9,8] 0
u[9,9] 0
x[0,0] 0
x[0,1] 0
x[0,2] 0
x[0,3] 0
x[0,4] 0
x[0,5] 0
x[0,6] 0
x[0,7] 0
x[0,8] 0
x[0,9] 0
x[0,10] 0
x[0,11] 0
x[0,12] 0
x[0,13] 0
x[0,14] 0
x[0,15] 0
x[0,16] 0
x[0,17] 0
x[0,18] 0
x[0,19] 0
x[0,20] 0
x[1,0] 0
x[1,1] 0
x[1,2] 0
x[1,3] 0
x[1,4] 0
x[1,5] 0
x[1,6] 0
x[1,7] 0
x[1,8] 0
x[1,9] 0
x[1,10] 0
x[1,11] 0
x[1,12] 0
x[1,13] 0
x[1,14] 0
x[1,15] 0
x[1,16] 0
x[1,17] 0
x[1,18] 0
x[1,19] 0
x[1,20] 0
x[2,0] 0
x[2,1] 0
x[2,2] 0
x[2,3] 0
x[2,4] 0
x[2,5] 0
x[2,6] 0
x[2,7] 0
x[2,8] 0
x[2,9] 0
x[2,10] 0
x[2,11] 0
x[2,12] 0
x[2,13] 0
x[2,14] 0
x[2,15] 0
x[2,16] 0
x[2,17] 0
x[2,18] 0
x[2,19] 0
x[2,20] 0
x[3,0] 0
x[3,1] 0
x[3,2] 0
x[3,3] 0
x[3,4] 0
x[3,5] 0
x[3,6] 0
x[3,7] 0
x[3,8] 0
x[3,9] 0
x[3,10] 0
x[3,11] 0
x[3,12] 0
x[3,13] 0
x[3,14] 0
x[3,15] 0
x[3,16] 0
x[3,17] 0
x[3,18] 0
x[3,19] 0
x[3,20] 0
x[4,0] 0
x[4,1] 0
x[4,2] 0
x[4,3] 0
x[4,4] 0
x[4,5] 0
x[4,6] 0
x[4,7] 0
x[4,8] 0
x[4,9] 0
x[4,10] 0
x[4,11] 0
x[4,12] 0
x[4,13] 0
x[4,14] 0
x[4,15] 0
x[4,16] 0
x[4,17] 0
x[4,18] 0
x[4,19] 0
x[4,20] 0
x[5,0] 0
x[5,1] 0
x[5,2] 0
x[5,3] 0
x[5,4] 0
x[5,5] 0
x[5,6] 0
x[5,7] 0
x[5,8] 0
x[5,9] 0
x[5,10] 0
x[5,11] 0
x[5,12] 0
x[5,13] 0
x[5,14] 0
x[5,15] 0
x[5,16] 0
x[5,17] 0
x[5,18] 0
x[5,19] 0
x[5,20] 0
x[6,0] 0
x[6,1] 0
x[6,2] 0
x[6,3] 0
x[6,4] 0
x[6,5] 0
x[6,6] 0
x[6,7] 0
x[6,8] 0
x[6,9] 0
x[6,10] 0
x[6,11] 0
x[6,12] 0
x[6,13] 0
x[6,14] 0
x[6,15] 0
x[6,16] 0
x[6,17] 0
x[6,18] 0
x[6,19] 0
x[6,20] 0
x[7,0] 0
x[7,1] 0
x[7,2] 0
x[7,3] 0
x[7,4] 0
x[7,5] 0
x[7,6] 0
x[7,7] 0
x[7,8] 0
x[7,9] 0
x[7,10] 0
x[7,11] 0
x[7,12] 0
x[7,13] 0
x[7,14] 0
x[7,15] 0
x[7,16] 0
x[7,17] 0
x[7,18] 0
x[7,19] 0
x[7,20] 0
x[8,0] 0
x[8,1] 0
x[8,2] 0
x[8,3] 0
x[8,4] 0
x[8,5] 0
x[8,6] 0
x[8,7] 0
x[8,8] 0
x[8,9] 0
x[8,10] 0
x[8,11] 0
x[8,12] 0
x[8,13] 0
x[8,14] 0
x[8,15] 0
x[8,16] 0
x[8,17] 0
x[8,18] 0
x[8,19] 0
x[8,20] 0
x[9,0] 0
x[9,1] 0
x[9,2] 0
x[9,3] 0
x[9,4] 0
x[9,5] 0
x[9,6] 0
x[9,7] 0
x[9,8] 0
x[9,9] 0
x[9,10] 0
x[9,11] 0
x[9,12] 0
x[9,13] 0
x[9,14] 0
x[9,15] 0
x[9,16] 0
x[9,17] 0
x[9,18] 0
x[9,19] 0
x[9,20] 0
P[0,0,0] 1
P[0,0,1] 1
P[0,0,2] 1
P[0,0,3] 1
P[0,0,4] 1
P[0,0,5] 1
P[0,0,6] 1
P[0,0,7] 1
P[0,0,8] 1
P[0,0,9] 1
P[0,1,0] 1
P[0,1,1] 1
P[0,1,2] 1
P[0,1,3] 1
P[0,1,4] 1
P[0,1,5] 1
P[0,1,6] 1
P[0,1,7] 1
P[0,1,8] 1
P[0,1,9] 1
P[0,2,0] 1
P[0,2,1] 1
P[0,2,2] 1
P[0,2,3] 1
P[0,2,4] 1
P[0,2,5] 1
P[0,2,6] 1
P[0,2,7] 1
P[0,2,8] 1
P[0,2,9] 1
P[0,3,0] 1
P[0,3,1] 1
P[0,3,2] 1
P[0,3,3] 1
P[0,3,4] 1
P[0,3,5] 1
P[0,3,6] 1
P[0,3,7] 1
P[0,3,8] 1
P[0,3,9] 1
P[0,4,0] 1
P[0,4,1] 1
P[0,4,2] 1
P[0,4,3] 1
P[0,4,4] 1
P[0,4,5] 1
P[0,4,6] 1
P[0,4,7] 1
P[0,4,8] 1
P[0,4,9] 1
P[0,5,0] 1
P[0,5,1] 1
P[0,5,2] 1
P[0,5,3] 1
P[0,5,4] 1
P[0,5,5] 1
P[0,5,6] 1
P[0,5,7] 1
P[0,5,8] 1
P[0,5,9] 1
P[0,6,0] 1
P[0,6,1] 1
P[0,6,2] 1
P[0,6,3] 1
P[0,6,4] 1
P[0,6,5] 1
P[0,6,6] 1
P[0,6,7] 1
P[0,6,8] 1
P[0,6,9] 1
P[0,7,0] 1
P[0,7,1] 1
P[0,7,2] 1
P[0,7,3] 1
P[0,7,4] 1
P[0,7,5] 1
P[0,7,6] 1
P[0,7,7] 1
P[0,7,8] 1
P[0,7,9] 1
P[0,8,0] 1
P[0,8,1] 1
P[0,8,2] 1
P[0,8,3] 1
P[0,8,4] 1
P[0,8,5] 1
P[0,8,6] 1
P[0,8,7] 1
P[0,8,8] 1
P[0,8,9] 1
P[0,9,0] 1
P[0,9,1] 1
P[0,9,2] 1
P[0,9,3] 1
P[0,9,4] 1
P[0,9,5] 1
P[0,9,6] 1
P[0,9,7] 1
P[0,9,8] 1
P[0,9,9] 1
P[1,0,0] 1
P[1,0,1] 1
P[1,0,2] 1
P[1,0,3] 1
P[1,0,4] 1
P[1,0,5] 1
P[1,0,6] 1
P[1,0,7] 1
P[1,0,8] 1
P[1,0,9] 1
P[1,1,0] 1
P[1,1,1] 1
P[1,1,2] 1
P[1,1,3] 1
P[1,1,4] 1
P[1,1,5] 1
P[1,1,6] 1
P[1,1,7] 1
P[1,1,8] 1
P[1,1,9] 1
P[1,2,0] 1
P[1,2,1] 1
P[1,2,2] 1
P[1,2,3] 1
P[1,2,4] 1
P[1,2,5] 1
P[1,2,6] 1
P[1,2,7] 1
P[1,2,8] 1
P[1,2,9] 1
P[1,3,0] 1
P[1,3,1] 1
P[1,3,2] 1
P[1,3,3] 1
P[1,3,4] 1
P[1,3,5] 1
P[1,3,6] 1
P[1,3,7] 1
P[1,3,8] 1
P[1,3,9] 1
P[1,4,0] 1
P[1,4,1] 1
P[1,4,2] 1
P[1,4,3] 1
P[1,4,4] 1
P[1,4,5] 1
P[1,4,6] 1
P[1,4,7] 1
P[1,4,8] 1
P[1,4,9] 1
P[1,5,0] 1
P[1,5,1] 1
P[1,5,2] 1
P[1,5,3] 1
P[1,5,4] 1
P[1,5,5] 1
P[1,5,6] 1
P[1,5,7] 1
P[1,5,8] 1
P[1,5,9] 1
P[1,6,0] 1
P[1,6,1] 1
P[1,6,2] 1
P[1,6,3] 1
P[1,6,4] 1
P[1,6,5] 1
P[1,6,6] 1
P[1,6,7] 1
P[1,6,8] 1
P[1,6,9] 1
P[1,7,0] 1
P[1,7,1] 1
P[1,7,2] 1
P[1,7,3] 1
P[1,7,4] 1
P[1,7,5] 1
P[1,7,6] 1
P[1,7,7] 1
P[1,7,8] 1
P[1,7,9] 1
P[1,8,0] 1
P[1,8,1] 1
P[1,8,2] 1
P[1,8,3] 1
P[1,8,4] 1
P[1,8,5] 1
P[1,8,6] 1
P[1,8,7] 1
P[1,8,8] 1
P[1,8,9] 1
P[1,9,0] 1
P[1,9,1] 1
P[1,9,2] 1
P[1,9,3] 1
P[1,9,4] 1
P[1,9,5] 1
P[1,9,6] 1
P[1,9,7] 1
P[1,9,8] 1
P[1,9,9] 1
P[2,0,0] 1
P[2,0,1] 1
P[2,0,2] 1
P[2,0,3] 1
P[2,0,4] 1
P[2,0,5] 1
P[2,0,6] 1
P[2,0,7] 1
P[2,0,8] 1
P[2,0,9] 1
P[2,1,0] 1
P[2,1,1] 1
P[2,1,2] 1
P[2,1,3] 1
P[2,1,4] 1
P[2,1,5] 1
P[2,1,6] 1
P[2,1,7] 1
P[2,1,8] 1
P[2,1,9] 1
P[2,2,0] 1
P[2,2,1] 1
P[2,2,2] 1
P[2,2,3] 1
P[2,2,4] 1
P[2,2,5] 1
P[2,2,6] 1
P[2,2,7] 1
P[2,2,8] 1
P[2,2,9] 1
P[2,3,0] 1
P[2,3,1] 1
P[2,3,2] 1
P[2,3,3] 1
P[2,3,4] 1
P[2,3,5] 1
P[2,3,6] 1
P[2,3,7] 1
P[2,3,8] 1
P[2,3,9] 1
P[2,4,0] 1
P[2,4,1] 1
P[2,4,2] 1
P[2,4,3] 1
P[2,4,4] 1
P[2,4,5] 1
P[2,4,6] 1
P[2,4,7] 1
P[2,4,8] 1
P[2,4,9] 1
P[2,5,0] 1
P[2,5,1] 1
P[2,5,2] 1
P[2,5,3] 1
P[2,5,4] 1
P[2,5,5] 1
P[2,5,6] 1
P[2,5,7] 1
P[2,5,8] 1
P[2,5,9] 1
P[2,6,0] 1
P[2,6,1] 1
P[2,6,2] 1
P[2,6,3] 1
P[2,6,4] 1
P[2,6,5] 1
P[2,6,6] 1
P[2,6,7] 1
P[2,6,8] 1
P[2,6,9] 1
P[2,7,0] 1
P[2,7,1] 1
P[2,7,2] 1
P[2,7,3] 1
P[2,7,4] 1
P[2,7,5] 1
P[2,7,6] 1
P[2,7,7] 1
P[2,7,8] 1
P[2,7,9] 1
P[2,8,0] 1
P[2,8,1] 1
P[2,8,2] 1
P[2,8,3] 1
P[2,8,4] 1
P[2,8,5] 1
P[2,8,6] 1
P[2,8,7] 1
P[2,8,8] 1
P[2,8,9] 1
P[2,9,0] 1
P[2,9,1] 1
P[2,9,2] 1
P[2,9,3] 1
P[2,9,4] 1
P[2,9,5] 1
P[2,9,6] 1
P[2,9,7] 1
P[2,9,8] 1
P[2,9,9] 1
P[3,0,0] 1
P[3,0,1] 1
P[3,0,2] 1
P[3,0,3] 1
P[3,0,4] 1
P[3,0,5] 1
P[3,0,6] 1
P[3,0,7] 1
P[3,0,8] 1
P[3,0,9] 1
P[3,1,0] 1
P[3,1,1] 1
P[3,1,2] 1
P[3,1,3] 1
P[3,1,4] 1
P[3,1,5] 1
P[3,1,6] 1
P[3,1,7] 1
P[3,1,8] 1
P[3,1,9] 1
P[3,2,0] 1
P[3,2,1] 1
P[3,2,2] 1
P[3,2,3] 1
P[3,2,4] 1
P[3,2,5] 1
P[3,2,6] 1
P[3,2,7] 1
P[3,2,8] 1
P[3,2,9] 1
P[3,3,0] 1
P[3,3,1] 1
P[3,3,2] 1
P[3,3,3] 1
P[3,3,4] 1
P[3,3,5] 1
P[3,3,6] 1
P[3,3,7] 1
P[3,3,8] 1
P[3,3,9] 1
P[3,4,0] 1
P[3,4,1] 1
P[3,4,2] 1
P[3,4,3] 1
P[3,4,4] 1
P[3,4,5] 1
P[3,4,6] 1
P[3,4,7] 1
P[3,4,8] 1
P[3,4,9] 1
P[3,5,0] 1
P[3,5,1] 1
P[3,5,2] 1
P[3,5,3] 1
P[3,5,4] 1
P[3,5,5] 1
P[3,5,6] 1
P[3,5,7] 1
P[3,5,8] 1
P[3,5,9] 1
P[3,6,0] 1
P[3,6,1] 1
P[3,6,2] 1
P[3,6,3] 1
P[3,6,4] 1
P[3,6,5] 1
P[3,6,6] 1
P[3,6,7] 1
P[3,6,8] 1
P[3,6,9] 1
P[3,7,0] 1
P[3,7,1] 1
P[3,7,2] 1
P[3,7,3] 1
P[3,7,4] 1
P[3,7,5] 1
P[3,7,6] 1
P[3,7,7] 1
P[3,7,8] 1
P[3,7,9] 1
P[3,8,0] 1
P[3,8,1] 1
P[3,8,2] 1
P[3,8,3] 1
P[3,8,4] 1
P[3,8,5] 1
P[3,8,6] 1
P[3,8,7] 1
P[3,8,8] 1
P[3,8,9] 1
P[3,9,0] 1
P[3,9,1] 1
P[3,9,2] 1
P[3,9,3] 1
P[3,9,4] 1
P[3,9,5] 1
P[3,9,6] 1
P[3,9,7] 1
P[3,9,8] 1
P[3,9,9] 1
P[4,0,0] 1
P[4,0,1] 1
P[4,0,2] 1
P[4,0,3] 1
P[4,0,4] 1
P[4,0,5] 1
P[4,0,6] 1
P[4,0,7] 1
P[4,0,8] 1
P[4,0,9] 1
P[4,1,0] 1
P[4,1,1] 1
P[4,1,2] 1
P[4,1,3] 1
P[4,1,4] 1
P[4,1,5] 1
P[4,1,6] 1
P[4,1,7] 1
P[4,1,8] 1
P[4,1,9] 1
P[4,2,0] 1
P[4,2,1] 1
P[4,2,2] 1
P[4,2,3] 1
P[4,2,4] 1
P[4,2,5] 1
P[4,2,6] 1
P[4,2,7] 1
P[4,2,8] 1
P[4,2,9] 1
P[4,3,0] 1
P[4,3,1] 1
P[4,3,2] 1
P[4,3,3] 1
P[4,3,4] 1
P[4,3,5] 1
P[4,3,6] 1
P[4,3,7] 1
P[4,3,8] 1
P[4,3,9] 1
P[4,4,0] 1
P[4,4,1] 1
P[4,4,2] 1
P[4,4,3] 1
P[4,4,4] 1
P[4,4,5] 1
P[4,4,6] 1
P[4,4,7] 1
P[4,4,8] 1
P[4,4,9] 1
P[4,5,0] 1
P[4,5,1] 1
P[4,5,2] 1
P[4,5,3] 1
P[4,5,4] 1
P[4,5,5] 1
P[4,5,6] 1
P[4,5,7] 1
P[4,5,8] 1
P[4,5,9] 1
P[4,6,0] 1
P[4,6,1] 1
P[4,6,2] 1
P[4,6,3] 1
P[4,6,4] 1
P[4,6,5] 1
P[4,6,6] 1
P[4,6,7] 1
P[4,6,8] 1
P[4,6,9] 1
P[4,7,0] 1
P[4,7,1] 1
P[4,7,2] 1
P[4,7,3] 1
P[4,7,4] 1
P[4,7,5] 1
P[4,7,6] 1
P[4,7,7] 1
P[4,7,8] 1
P[4,7,9] 1
P[4,8,0] 1
P[4,8,1] 1
P[4,8,2] 1
P[4,8,3] 1
P[4,8,4] 1
P[4,8,5] 1
P[4,8,6] 1
P[4,8,7] 1
P[4,8,8] 1
P[4,8,9] 1
P[4,9,0] 1
P[4,9,1] 1
P[4,9,2] 1
P[4,9,3] 1
P[4,9,4] 1
P[4,9,5] 1
P[4,9,6] 1
P[4,9,7] 1
P[4,9,8] 1
P[4,9,9] 1
P[5,0,0] 1
P[5,0,1] 1
P[5,0,2] 1
P[5,0,3] 1
P[5,0,4] 1
P[5,0,5] 1
P[5,0,6] 1
P[5,0,7] 1
P[5,0,8] 1
P[5,0,9] 1
P[5,1,0] 1
P[5,1,1] 1
P[5,1,2] 1
P[5,1,3] 1
P[5,1,4] 1
P[5,1,5] 1
P[5,1,6] 1
P[5,1,7] 1
P[5,1,8] 1
P[5,1,9] 1
P[5,2,0] 1
P[5,2,1] 1
P[5,2,2] 1
P[5,2,3] 1
P[5,2,4] 1
P[5,2,5] 1
P[5,2,6] 1
P[5,2,7] 1
P[5,2,8] 1
P[5,2,9] 1
P[5,3,0] 1
P[5,3,1] 1
P[5,3,2] 1
P[5,3,3] 1
P[5,3,4] 1
P[5,3,5] 1
P[5,3,6] 1
P[5,3,7] 1
P[5,3,8] 1
P[5,3,9] 1
P[5,4,0] 1
P[5,4,1] 1
P[5,4,2] 1
P[5,4,3] 1
P[5,4,4] 1
P[5,4,5] 1
P[5,4,6] 1
P[5,4,7] 1
P[5,4,8] 1
P[5,4,9] 1
P[5,5,0] 1
P[5,5,1] 1
P[5,5,2] 1
P[5,5,3] 1
P[5,5,4] 1
P[5,5,5] 1
P[5,5,6] 1
P[5,5,7] 1
P[5,5,8] 1
P[5,5,9] 1
P[5,6,0] 1
P[5,6,1] 1
P[5,6,2] 1
P[5,6,3] 1
P[5,6,4] 1
P[5,6,5] 1
P[5,6,6] 1
P[5,6,7] 1
P[5,6,8] 1
P[5,6,9] 1
P[5,7,0] 1
P[5,7,1] 1
P[5,7,2] 1
P[5,7,3] 1
P[5,7,4] 1
P[5,7,5] 1
P[5,7,6] 1
P[5,7,7] 1
P[5,7,8] 1
P[5,7,9] 1
P[5,8,0] 1
P[5,8,1] 1
P[5,8,2] 1
P[5,8,3] 1
P[5,8,4] 1
P[5,8,5] 1
P[5,8,6] 1
P[5,8,7] 1
P[5,8,8] 1
P[5,8,9] 1
P[5,9,0] 1
P[5,9,1] 1
P[5,9,2] 1
P[5,9,3] 1
P[5,9,4] 1
P[5,9,5] 1
P[5,9,6] 1
P[5,9,7] 1
P[5,9,8] 1
P[5,9,9] 1
P[6,0,0] 1
P[6,0,1] 1
P[6,0,2] 1
P[6,0,3] 1
P[6,0,4] 1
P[6,0,5] 1
P[6,0,6] 1
P[6,0,7] 1
P[6,0,8] 1
P[6,0,9] 1
P[6,1,0] 1
P[6,1,1] 1
P[6,1,2] 1
P[6,1,3] 1
P[6,1,4] 1
P[6,1,5] 1
P[6,1,6] 1
P[6,1,7] 1
P[6,1,8] 1
P[6,1,9] 1
P[6,2,0] 1
P[6,2,1] 1
P[6,2,2] 1
P[6,2,3] 1
P[6,2,4] 1
P[6,2,5] 1
P[6,2,6] 1
P[6,2,7] 1
P[6,2,8] 1
P[6,2,9] 1
P[6,3,0] 1
P[6,3,1] 1
P[6,3,2] 1
P[6,3,3] 1
P[6,3,4] 1
P[6,3,5] 1
P[6,3,6] 1
P[6,3,7] 1
P[6,3,8] 1
P[6,3,9] 1
P[6,4,0] 1
P[6,4,1] 1
P[6,4,2] 1
P[6,4,3] 1
P[6,4,4] 1
P[6,4,5] 1
P[6,4,6] 1
P[6,4,7] 1
P[6,4,8] 1
P[6,4,9] 1
P[6,5,0] 1
P[6,5,1] 1
P[6,5,2] 1
P[6,5,3] 1
P[6,5,4] 1
P[6,5,5] 1
P[6,5,6] 1
P[6,5,7] 1
P[6,5,8] 1
P[6,5,9] 1
P[6,6,0] 1
P[6,6,1] 1
P[6,6,2] 1
P[6,6,3] 1
P[6,6,4] 1
P[6,6,5] 1
P[6,6,6] 1
P[6,6,7] 1
P[6,6,8] 1
P[6,6,9] 1
P[6,7,0] 1
P[6,7,1] 1
P[6,7,2] 1
P[6,7,3] 1
P[6,7,4] 1
P[6,7,5] 1
P[6,7,6] 1
P[6,7,7] 1
P[6,7,8] 1
P[6,7,9] 1
P[6,8,0] 1
P[6,8,1] 1
P[6,8,2] 1
P[6,8,3] 1
P[6,8,4] 1
P[6,8,5] 1
P[6,8,6] 1
P[6,8,7] 1
P[6,8,8] 1
P[6,8,9] 1
P[6,9,0] 1
P[6,9,1] 1
P[6,9,2] 1
P[6,9,3] 1
P[6,9,4] 1
P[6,9,5] 1
P[6,9,6] 1
P[6,9,7] 1
P[6,9,8] 1
P[6,9,9] 1
P[7,0,0] 1
P[7,0,1] 1
P[7,0,2] 1
P[7,0,3] 1
P[7,0,4] 1
P[7,0,5] 1
P[7,0,6] 1
P[7,0,7] 1
P[7,0,8] 1
P[7,0,9] 1
P[7,1,0] 1
P[7,1,1] 1
P[7,1,2] 1
P[7,1,3] 1
P[7,1,4] 1
P[7,1,5] 1
P[7,1,6] 1
P[7,1,7] 1
P[7,1,8] 1
P[7,1,9] 1
P[7,2,0] 1
P[7,2,1] 1
P[7,2,2] 1
P[7,2,3] 1
P[7,2,4] 1
P[7,2,5] 1
P[7,2,6] 1
P[7,2,7] 1
P[7,2,8] 1
P[7,2,9] 1
P[7,3,0] 1
P[7,3,1] 1
P[7,3,2] 1
P[7,3,3] 1
P[7,3,4] 1
P[7,3,5] 1
P[7,3,6] 1
P[7,3,7] 1
P[7,3,8] 1
P[7,3,9] 1
P[7,4,0] 1
P[7,4,1] 1
P[7,4,2] 1
P[7,4,3] 1
P[7,4,4] 1
P[7,4,5] 1
P[7,4,6] 1
P[7,4,7] 1
P[7,4,8] 1
P[7,4,9] 1
P[7,5,0] 1
P[7,5,1] 1
P[7,5,2] 1
P[7,5,3] 1
P[7,5,4] 1
P[7,5,5] 1
P[7,5,6] 1
P[7,5,7] 1
P[7,5,8] 1
P[7,5,9] 1
P[7,6,0] 1
P[7,6,1] 1
P[7,6,2] 1
P[7,6,3] 1
P[7,6,4] 1
P[7,6,5] 1
P[7,6,6] 1
P[7,6,7] 1
P[7,6,8] 1
P[7,6,9] 1
P[7,7,0] 1
P[7,7,1] 1
P[7,7,2] 1
P[7,7,3] 1
P[7,7,4] 1
P[7,7,5] 1
P[7,7,6] 1
P[7,7,7] 1
P[7,7,8] 1
P[7,7,9] 1
P[7,8,0] 1
P[7,8,1] 1
P[7,8,2] 1
P[7,8,3] 1
P[7,8,4] 1
P[7,8,5] 1
P[7,8,6] 1
P[7,8,7] 1
P[7,8,8] 1
P[7,8,9] 1
P[7,9,0] 1
P[7,9,1] 1
P[7,9,2] 1
P[7,9,3] 1
P[7,9,4] 1
P[7,9,5] 1
P[7,9,6] 1
P[7,9,7] 1
P[7,9,8] 1
P[7,9,9] 1
P[8,0,0] 1
P[8,0,1] 1
P[8,0,2] 1
P[8,0,3] 1
P[8,0,4] 1
P[8,0,5] 1
P[8,0,6] 1
P[8,0,7] 1
P[8,0,8] 1
P[8,0,9] 1
P[8,1,0] 1
P[8,1,1] 1
P[8,1,2] 1
P[8,1,3] 1
P[8,1,4] 1
P[8,1,5] 1
P[8,1,6] 1
P[8,1,7] 1
P[8,1,8] 1
P[8,1,9] 1
P[8,2,0] 1
P[8,2,1] 1
P[8,2,2] 1
P[8,2,3] 1
P[8,2,4] 1
P[8,2,5] 1
P[8,2,6] 1
P[8,2,7] 1
P[8,2,8] 1
P[8,2,9] 1
P[8,3,0] 1
P[8,3,1] 1
P[8,3,2] 1
P[8,3,3] 1
P[8,3,4] 1
P[8,3,5] 1
P[8,3,6] 1
P[8,3,7] 1
P[8,3,8] 1
P[8,3,9] 1
P[8,4,0] 1
P[8,4,1] 1
P[8,4,2] 1
P[8,4,3] 1
P[8,4,4] 1
P[8,4,5] 1
P[8,4,6] 1
P[8,4,7] 1
P[8,4,8] 1
P[8,4,9] 1
P[8,5,0] 1
P[8,5,1] 1
P[8,5,2] 1
P[8,5,3] 1
P[8,5,4] 1
P[8,5,5] 1
P[8,5,6] 1
P[8,5,7] 1
P[8,5,8] 1
P[8,5,9] 1
P[8,6,0] 1
P[8,6,1] 1
P[8,6,2] 1
P[8,6,3] 1
P[8,6,4] 1
P[8,6,5] 1
P[8,6,6] 1
P[8,6,7] 1
P[8,6,8] 1
P[8,6,9] 1
P[8,7,0] 1
P[8,7,1] 1
P[8,7,2] 1
P[8,7,3] 1
P[8,7,4] 1
P[8,7,5] 1
P[8,7,6] 1
P[8,7,7] 1
P[8,7,8] 1
P[8,7,9] 1
P[8,8,0] 1
P[8,8,1] 1
P[8,8,2] 1
P[8,8,3] 1
P[8,8,4] 1
P[8,8,5] 1
P[8,8,6] 1
P[8,8,7] 1
P[8,8,8] 1
P[8,8,9] 1
P[8,9,0] 1
P[8,9,1] 1
P[8,9,2] 1
P[8,9,3] 1
P[8,9,4] 1
P[8,9,5] 1
P[8,9,6] 1
P[8,9,7] 1
P[8,9,8] 1
P[8,9,9] 1
P[9,0,0] 1
P[9,0,1] 1
P[9,0,2] 1
P[9,0,3] 1
P[9,0,4] 1
P[9,0,5] 1
P[9,0,6] 1
P[9,0,7] 1
P[9,0,8] 1
P[9,0,9] 1
P[9,1,0] 1
P[9,1,1] 1
P[9,1,2] 1
P[9,1,3] 1
P[9,1,4] 1
P[9,1,5] 1
P[9,1,6] 1
P[9,1,7] 1
P[9,1,8] 1
P[9,1,9] 1
P[9,2,0] 1
P[9,2,1] 1
P[9,2,2] 1
P[9,2,3] 1
P[9,2,4] 1
P[9,2,5] 1
P[9,2,6] 1
P[9,2,7] 1
P[9,2,8] 1
P[9,2,9] 1
P[9,3,0] 1
P[9,3,1] 1
P[9,3,2] 1
P[9,3,3] 1
P[9,3,4] 1
P[9,3,5] 1
P[9,3,6] 1
P[9,3,7] 1
P[9,3,8] 1
P[9,3,9] 1
P[9,4,0] 1
P[9,4,1] 1
P[9,4,2] 1
P[9,4,3] 1
P[9,4,4] 1
P[9,4,5] 1
P[9,4,6] 1
P[9,4,7] 1
P[9,4,8] 1
P[9,4,9] 1
P[9,5,0] 1
P[9,5,1] 1
P[9,5,2] 1
P[9,5,3] 1
P[9,5,4] 1
P[9,5,5] 1
P[9,5,6] 1
P[9,5,7] 1
P[9,5,8] 1
P[9,5,9] 1
P[9,6,0] 1
P[9,6,1] 1
P[9,6,2] 1
P[9,6,3] 1
P[9,6,4] 1
P[9,6,5] 1
P[9,6,6] 1
P[9,6,7] 1
P[9,6,8] 1
P[9,6,9] 1
P[9,7,0] 1
P[9,7,1] 1
P[9,7,2] 1
P[9,7,3] 1
P[9,7,4] 1
P[9,7,5] 1
P[9,7,6] 1
P[9,7,7] 1
P[9,7,8] 1
P[9,7,9] 1
P[9,8,0] 1
P[9,8,1] 1
P[9,8,2] 1
P[9,8,3] 1
P[9,8,4] 1
P[9,8,5] 1
P[9,8,6] 1
P[9,8,7] 1
P[9,8,8] 1
P[9,8,9] 1
P[9,9,0] 1
P[9,9,1] 1
P[9,9,2] 1
P[9,9,3] 1
P[9,9,4] 1
P[9,9,5] 1
P[9,9,6] 1
P[9,9,7] 1
P[9,9,8] 1
P[9,9,9] 1
